(declare-fun var0 () String)
(assert (str.in.re var0 (re.++ (re.+ (re.+ (str.to.re "TTT"))) (re.++ (re.+ (re.* (str.to.re "SSS"))) (re.++ (re.union (re.union (str.to.re "PP") (str.to.re "QQ")) (re.* (str.to.re "R"))) (re.++ (re.+ (re.+ (str.to.re "O"))) (re.++ (re.* (re.+ (str.to.re "NN"))) (re.++ (re.* (re.+ (str.to.re "MM"))) (re.++ (re.* (re.union (str.to.re "K") (str.to.re "LLL"))) (re.++ (re.+ (re.* (str.to.re "JJ"))) (re.++ (re.* (re.+ (str.to.re "III"))) (re.++ (re.union (re.union (str.to.re "F") (str.to.re "GG")) (re.* (str.to.re "HHH"))) (re.++ (re.union (re.union (str.to.re "CC") (str.to.re "D")) (re.+ (str.to.re "EEE"))) (re.++ (re.* (re.* (str.to.re "BB"))) (re.++ (re.+ (re.union (str.to.re "z") (str.to.re "AAA"))) (re.++ (re.union (re.union (str.to.re "vv") (str.to.re "w")) (re.union (str.to.re "xxx") (str.to.re "yy"))) (re.++ (re.+ (re.+ (str.to.re "uu"))) (re.++ (re.* (re.* (str.to.re "ttt"))) (re.++ (re.* (re.+ (str.to.re "sss"))) (re.++ (re.* (re.* (str.to.re "rr"))) (re.++ (re.* (re.+ (str.to.re "qqq"))) (re.++ (re.* (re.* (str.to.re "pp"))) (re.++ (re.* (re.* (str.to.re "ooo"))) (re.++ (re.* (re.+ (str.to.re "nnn"))) (re.++ (re.* (re.+ (str.to.re "mm"))) (re.++ (re.+ (re.+ (str.to.re "lll"))) (re.++ (re.+ (re.union (str.to.re "j") (str.to.re "k"))) (re.++ (re.union (re.* (str.to.re "ggg")) (re.union (str.to.re "hhh") (str.to.re "i"))) (re.++ (re.union (re.* (str.to.re "ee")) (re.* (str.to.re "f"))) (re.++ (re.* (re.* (str.to.re "dd"))) (re.++ (re.union (re.+ (str.to.re "b")) (re.* (str.to.re "c"))) (re.++ (re.union (re.* (str.to.re "99")) (re.+ (str.to.re "a"))) (re.++ (re.union (re.+ (str.to.re "6")) (re.union (str.to.re "777") (str.to.re "8"))) (re.++ (re.union (re.+ (str.to.re "4")) (re.* (str.to.re "5"))) (re.union (re.union (str.to.re "0") (str.to.re "111")) (re.union (str.to.re "22") (str.to.re "33")))))))))))))))))))))))))))))))))))))
(check-sat)